81
67
102
355
111
164
96
382
143
134
85
1101
36
37
791
19
107
0
179
83
0
86
34
68
31
61
122
803
1198
75
353
34
52
0
129
71
319
123
27
47
96
548
98
91
344
47
301
39
84
57
16
0
421
181
59
75
103
46
50
43
569
30
112
143
1671
76
0
60
0
170
96
54
70
45
605
83
57
94
126
120
45
15
407
222
131
17
176
181
137
379
47
370
69
208
111
25
29
82
24
22
